(set-info :smt-lib-version 2.6)
(set-logic QF_AUFBV)
(set-info :source |These benchmarks are derived from a semi-automated proof of functional equivalence between two implementations of an Elliptic Curve Digital Signature Algorithm (ECDSA). More information about problem they encode can be found here: http://cps-vo.org/node/3405|)
(set-info :category "industrial")
(set-info :status unsat)
(declare-fun x115 () (_ BitVec 1))
(declare-fun x113 () (_ BitVec 1))
(declare-fun x111 () (_ BitVec 1))
(declare-fun x109 () (_ BitVec 1))
(declare-fun x107 () (_ BitVec 1))
(declare-fun x105 () (_ BitVec 1))
(declare-fun x104 () (_ BitVec 1))
(declare-fun x103 () (_ BitVec 384))
(declare-fun x102 () (_ BitVec 384))
(declare-fun x101 () (_ BitVec 384))
(declare-fun x100 () (_ BitVec 384))
(declare-fun x99 () (_ BitVec 384))
(declare-fun x98 () (_ BitVec 384))
(declare-fun x97 () (_ BitVec 384))
(declare-fun x96 () (_ BitVec 384))
(declare-fun x95 () (_ BitVec 384))
(declare-fun x94 () (_ BitVec 384))
(declare-fun x93 () (_ BitVec 384))
(declare-fun x92 () (_ BitVec 384))
(declare-fun x91 () (_ BitVec 384))
(declare-fun x90 () (_ BitVec 384))
(declare-fun x89 () (_ BitVec 384))
(declare-fun x88 () (_ BitVec 1))
(declare-fun x86 () (_ BitVec 1))
(declare-fun x85 () (_ BitVec 1))
(declare-fun x84 () (_ BitVec 384))
(declare-fun x83 () (_ BitVec 384))
(declare-fun x82 () (_ BitVec 384))
(declare-fun x81 () (_ BitVec 384))
(declare-fun x80 () (_ BitVec 384))
(declare-fun x79 () (_ BitVec 384))
(declare-fun x78 () (_ BitVec 384))
(declare-fun x77 () (_ BitVec 384))
(declare-fun x75 () (_ BitVec 1))
(declare-fun x74 () (_ BitVec 1))
(declare-fun x73 () (_ BitVec 1))
(declare-fun x71 () (_ BitVec 1))
(declare-fun x70 () (_ BitVec 1))
(declare-fun x69 () (_ BitVec 384))
(declare-fun x68 () (_ BitVec 384))
(declare-fun x67 () (_ BitVec 384))
(declare-fun x66 () (_ BitVec 384))
(declare-fun x65 () (_ BitVec 384))
(declare-fun x64 () (_ BitVec 384))
(declare-fun x63 () (_ BitVec 384))
(declare-fun x62 () (_ BitVec 384))
(declare-fun x61 () (_ BitVec 384))
(declare-fun x60 () (_ BitVec 384))
(declare-fun x58 () (_ BitVec 1))
(declare-fun x57 () (_ BitVec 1))
(declare-fun x56 () (_ BitVec 384))
(declare-fun x55 () (_ BitVec 384))
(declare-fun x54 () (_ BitVec 1))
(declare-fun x52 () (_ BitVec 1))
(declare-fun x51 () (_ BitVec 1))
(declare-fun x50 () (_ BitVec 384))
(declare-fun x49 () (_ BitVec 384))
(declare-fun x48 ((_ BitVec 384) (_ BitVec 384) (_ BitVec 384) (_ BitVec 384) (_ BitVec 384)) (_ BitVec 384))
(declare-fun x47 () (_ BitVec 384))
(declare-fun x46 ((_ BitVec 384) (_ BitVec 384)) (_ BitVec 384))
(declare-fun x45 () (_ BitVec 384))
(declare-fun x44 ((_ BitVec 384) (_ BitVec 384) (_ BitVec 384)) (_ BitVec 384))
(declare-fun x43 () (_ BitVec 384))
(declare-fun x42 () (_ BitVec 384))
(declare-fun x41 () (_ BitVec 384))
(declare-fun x40 () (_ BitVec 384))
(declare-fun x39 () (_ BitVec 384))
(declare-fun x38 () (_ BitVec 384))
(declare-fun x37 () (_ BitVec 384))
(declare-fun x36 () (_ BitVec 384))
(declare-fun x35 () (_ BitVec 384))
(declare-fun x34 () (_ BitVec 384))
(declare-fun x33 () (_ BitVec 384))
(declare-fun x32 () (_ BitVec 384))
(declare-fun x30 () (_ BitVec 1))
(declare-fun x28 () (_ BitVec 1))
(declare-fun x26 () (_ BitVec 1))
(declare-fun x25 () (_ BitVec 1))
(declare-fun x24 () (_ BitVec 384))
(declare-fun x22 () (_ BitVec 1))
(declare-fun x20 () (_ BitVec 1))
(declare-fun x19 () (_ BitVec 1))
(declare-fun x18 () (_ BitVec 32))
(declare-fun x17 () (_ BitVec 32))
(declare-fun x16 () (_ BitVec 1))
(declare-fun x15 () (_ BitVec 384))
(declare-fun x14 () (_ BitVec 384))
(declare-fun x13 () (Array (_ BitVec 4) (_ BitVec 32)))
(declare-fun x12 () (Array (_ BitVec 4) (_ BitVec 32)))
(declare-fun x11 () (Array (_ BitVec 4) (_ BitVec 32)))
(declare-fun x10 () (Array (_ BitVec 4) (_ BitVec 32)))
(declare-fun x9 () (Array (_ BitVec 4) (_ BitVec 32)))
(declare-fun x8 () (Array (_ BitVec 4) (_ BitVec 32)))
(declare-fun x7 () (Array (_ BitVec 4) (_ BitVec 32)))
(declare-fun x6 () (Array (_ BitVec 4) (_ BitVec 32)))
(declare-fun x5 () (Array (_ BitVec 4) (_ BitVec 32)))
(declare-fun x4 () (Array (_ BitVec 4) (_ BitVec 32)))
(declare-fun x3 () (Array (_ BitVec 4) (_ BitVec 32)))
(declare-fun x2 () (Array (_ BitVec 4) (_ BitVec 32)))
(declare-fun x1 () (Array (_ BitVec 4) (_ BitVec 32)))
(declare-fun x0 () (Array (_ BitVec 4) (_ BitVec 32)))
(declare-fun p116 () Bool)
(declare-fun p114 () Bool)
(declare-fun p112 () Bool)
(declare-fun p110 () Bool)
(declare-fun p108 () Bool)
(declare-fun p106 () Bool)
(declare-fun p87 () Bool)
(declare-fun p76 () Bool)
(declare-fun p72 () Bool)
(declare-fun p59 () Bool)
(declare-fun p53 () Bool)
(declare-fun p31 () Bool)
(declare-fun p29 () Bool)
(declare-fun p27 () Bool)
(declare-fun p23 () Bool)
(declare-fun p21 () Bool)
(assert (= p116 (and p53 p114)))
(assert (= x115 (bvand x52 x113)))
(assert (= p114 (or (= x24 (_ bv0 384)) p112)))
(assert (= x113 (bvor x54 x111)))
(assert (= p112 (and p72 p110)))
(assert (= x111 (bvand x71 x109)))
(assert (= p110 (or (= x56 (_ bv0 384)) p108)))
(assert (= x109 (bvor x73 x107)))
(assert (= p108 (and p87 p106)))
(assert (= x107 (bvand x86 x105)))
(assert (= p106 (or (bvule x14 x15) (= x89 x103))))
(assert (= x105 (bvor x88 x104)))
(assert (= x104 (ite (= x89 x103) (_ bv1 1) (_ bv0 1))))
(assert (= x103 (x48 x90 x91 x92 x96 x102)))
(assert (= x102 (x46 x97 x101)))
(assert (= x101 (x44 x98 x99 x100)))
(assert (= x100 (concat (concat (concat (concat (concat (concat (concat (concat (concat (concat (concat (select x0 (_ bv11 4)) (select x0 (_ bv10 4))) (select x0 (_ bv9 4))) (select x0 (_ bv8 4))) (select x0 (_ bv7 4))) (select x0 (_ bv6 4))) (select x0 (_ bv5 4))) (select x0 (_ bv4 4))) (select x0 (_ bv3 4))) (select x0 (_ bv2 4))) (select x0 (_ bv1 4))) (select x0 (_ bv0 4)))))
(assert (= x99 (concat (concat (concat (concat (concat (concat (concat (concat (concat (concat (concat (select x4 (_ bv11 4)) (select x4 (_ bv10 4))) (select x4 (_ bv9 4))) (select x4 (_ bv8 4))) (select x4 (_ bv7 4))) (select x4 (_ bv6 4))) (select x4 (_ bv5 4))) (select x4 (_ bv4 4))) (select x4 (_ bv3 4))) (select x4 (_ bv2 4))) (select x4 (_ bv1 4))) (select x4 (_ bv0 4)))))
(assert (= x98 (concat (concat (concat (concat (concat (concat (concat (concat (concat (concat (concat (select x3 (_ bv11 4)) (select x3 (_ bv10 4))) (select x3 (_ bv9 4))) (select x3 (_ bv8 4))) (select x3 (_ bv7 4))) (select x3 (_ bv6 4))) (select x3 (_ bv5 4))) (select x3 (_ bv4 4))) (select x3 (_ bv3 4))) (select x3 (_ bv2 4))) (select x3 (_ bv1 4))) (select x3 (_ bv0 4)))))
(assert (= x97 (concat (concat (concat (concat (concat (concat (concat (concat (concat (concat (concat (select x3 (_ bv11 4)) (select x3 (_ bv10 4))) (select x3 (_ bv9 4))) (select x3 (_ bv8 4))) (select x3 (_ bv7 4))) (select x3 (_ bv6 4))) (select x3 (_ bv5 4))) (select x3 (_ bv4 4))) (select x3 (_ bv3 4))) (select x3 (_ bv2 4))) (select x3 (_ bv1 4))) (select x3 (_ bv0 4)))))
(assert (= x96 (bvlshr x95 (_ bv1 384))))
(assert (= x95 (bvsub x93 x94)))
(assert (= x94 (concat (concat (concat (concat (concat (concat (concat (concat (concat (concat (concat (select x1 (_ bv11 4)) (select x1 (_ bv10 4))) (select x1 (_ bv9 4))) (select x1 (_ bv8 4))) (select x1 (_ bv7 4))) (select x1 (_ bv6 4))) (select x1 (_ bv5 4))) (select x1 (_ bv4 4))) (select x1 (_ bv3 4))) (select x1 (_ bv2 4))) (select x1 (_ bv1 4))) (select x1 (_ bv0 4)))))
(assert (= x93 (concat (concat (concat (concat (concat (concat (concat (concat (concat (concat (concat (select x2 (_ bv11 4)) (select x2 (_ bv10 4))) (select x2 (_ bv9 4))) (select x2 (_ bv8 4))) (select x2 (_ bv7 4))) (select x2 (_ bv6 4))) (select x2 (_ bv5 4))) (select x2 (_ bv4 4))) (select x2 (_ bv3 4))) (select x2 (_ bv2 4))) (select x2 (_ bv1 4))) (select x2 (_ bv0 4)))))
(assert (= x92 (concat (concat (concat (concat (concat (concat (concat (concat (concat (concat (concat (select x0 (_ bv11 4)) (select x0 (_ bv10 4))) (select x0 (_ bv9 4))) (select x0 (_ bv8 4))) (select x0 (_ bv7 4))) (select x0 (_ bv6 4))) (select x0 (_ bv5 4))) (select x0 (_ bv4 4))) (select x0 (_ bv3 4))) (select x0 (_ bv2 4))) (select x0 (_ bv1 4))) (select x0 (_ bv0 4)))))
(assert (= x91 (concat (concat (concat (concat (concat (concat (concat (concat (concat (concat (concat (select x1 (_ bv11 4)) (select x1 (_ bv10 4))) (select x1 (_ bv9 4))) (select x1 (_ bv8 4))) (select x1 (_ bv7 4))) (select x1 (_ bv6 4))) (select x1 (_ bv5 4))) (select x1 (_ bv4 4))) (select x1 (_ bv3 4))) (select x1 (_ bv2 4))) (select x1 (_ bv1 4))) (select x1 (_ bv0 4)))))
(assert (= x90 (concat (concat (concat (concat (concat (concat (concat (concat (concat (concat (concat (select x3 (_ bv11 4)) (select x3 (_ bv10 4))) (select x3 (_ bv9 4))) (select x3 (_ bv8 4))) (select x3 (_ bv7 4))) (select x3 (_ bv6 4))) (select x3 (_ bv5 4))) (select x3 (_ bv4 4))) (select x3 (_ bv3 4))) (select x3 (_ bv2 4))) (select x3 (_ bv1 4))) (select x3 (_ bv0 4)))))
(assert (= x89 (x48 x32 x33 x34 x39 x47)))
(assert (= x88 (ite (bvule x14 x15) (_ bv1 1) (_ bv0 1))))
(assert (= p87 (or p76 (= x77 x84))))
(assert (= x86 (bvor x75 x85)))
(assert (= x85 (ite (= x77 x84) (_ bv1 1) (_ bv0 1))))
(assert (= x84 (x48 x78 x79 x80 x82 x83)))
(assert (= x83 (x46 x40 x45)))
(assert (= x82 (bvlshr x81 (_ bv1 384))))
(assert (= x81 (bvsub x35 x36)))
(assert (= x80 (concat (concat (concat (concat (concat (concat (concat (concat (concat (concat (concat (select x4 (_ bv11 4)) (select x4 (_ bv10 4))) (select x4 (_ bv9 4))) (select x4 (_ bv8 4))) (select x4 (_ bv7 4))) (select x4 (_ bv6 4))) (select x4 (_ bv5 4))) (select x4 (_ bv4 4))) (select x4 (_ bv3 4))) (select x4 (_ bv2 4))) (select x4 (_ bv1 4))) (select x4 (_ bv0 4)))))
(assert (= x79 (concat (concat (concat (concat (concat (concat (concat (concat (concat (concat (concat (select x2 (_ bv11 4)) (select x2 (_ bv10 4))) (select x2 (_ bv9 4))) (select x2 (_ bv8 4))) (select x2 (_ bv7 4))) (select x2 (_ bv6 4))) (select x2 (_ bv5 4))) (select x2 (_ bv4 4))) (select x2 (_ bv3 4))) (select x2 (_ bv2 4))) (select x2 (_ bv1 4))) (select x2 (_ bv0 4)))))
(assert (= x78 (concat (concat (concat (concat (concat (concat (concat (concat (concat (concat (concat (select x3 (_ bv11 4)) (select x3 (_ bv10 4))) (select x3 (_ bv9 4))) (select x3 (_ bv8 4))) (select x3 (_ bv7 4))) (select x3 (_ bv6 4))) (select x3 (_ bv5 4))) (select x3 (_ bv4 4))) (select x3 (_ bv3 4))) (select x3 (_ bv2 4))) (select x3 (_ bv1 4))) (select x3 (_ bv0 4)))))
(assert (= x77 (x48 x32 x33 x34 x39 x47)))
(assert (= p76 (not (bvule x14 x15))))
(assert (= x75 (bvnot x74)))
(assert (= x74 (ite (bvule x14 x15) (_ bv1 1) (_ bv0 1))))
(assert (= x73 (ite (= x56 (_ bv0 384)) (_ bv1 1) (_ bv0 1))))
(assert (= p72 (or p59 (= x60 x69))))
(assert (= x71 (bvor x58 x70)))
(assert (= x70 (ite (= x60 x69) (_ bv1 1) (_ bv0 1))))
(assert (= x69 (x48 x61 x62 x63 x65 x68)))
(assert (= x68 (x46 x66 x67)))
(assert (= x67 (concat (concat (concat (concat (concat (concat (concat (concat (concat (concat (concat (select x0 (_ bv11 4)) (select x0 (_ bv10 4))) (select x0 (_ bv9 4))) (select x0 (_ bv8 4))) (select x0 (_ bv7 4))) (select x0 (_ bv6 4))) (select x0 (_ bv5 4))) (select x0 (_ bv4 4))) (select x0 (_ bv3 4))) (select x0 (_ bv2 4))) (select x0 (_ bv1 4))) (select x0 (_ bv0 4)))))
(assert (= x66 (concat (concat (concat (concat (concat (concat (concat (concat (concat (concat (concat (select x3 (_ bv11 4)) (select x3 (_ bv10 4))) (select x3 (_ bv9 4))) (select x3 (_ bv8 4))) (select x3 (_ bv7 4))) (select x3 (_ bv6 4))) (select x3 (_ bv5 4))) (select x3 (_ bv4 4))) (select x3 (_ bv3 4))) (select x3 (_ bv2 4))) (select x3 (_ bv1 4))) (select x3 (_ bv0 4)))))
(assert (= x65 (bvlshr x64 (_ bv1 384))))
(assert (= x64 (concat (concat (concat (concat (concat (concat (concat (concat (concat (concat (concat (select x1 (_ bv11 4)) (select x1 (_ bv10 4))) (select x1 (_ bv9 4))) (select x1 (_ bv8 4))) (select x1 (_ bv7 4))) (select x1 (_ bv6 4))) (select x1 (_ bv5 4))) (select x1 (_ bv4 4))) (select x1 (_ bv3 4))) (select x1 (_ bv2 4))) (select x1 (_ bv1 4))) (select x1 (_ bv0 4)))))
(assert (= x63 (concat (concat (concat (concat (concat (concat (concat (concat (concat (concat (concat (select x4 (_ bv11 4)) (select x4 (_ bv10 4))) (select x4 (_ bv9 4))) (select x4 (_ bv8 4))) (select x4 (_ bv7 4))) (select x4 (_ bv6 4))) (select x4 (_ bv5 4))) (select x4 (_ bv4 4))) (select x4 (_ bv3 4))) (select x4 (_ bv2 4))) (select x4 (_ bv1 4))) (select x4 (_ bv0 4)))))
(assert (= x62 (concat (concat (concat (concat (concat (concat (concat (concat (concat (concat (concat (select x2 (_ bv11 4)) (select x2 (_ bv10 4))) (select x2 (_ bv9 4))) (select x2 (_ bv8 4))) (select x2 (_ bv7 4))) (select x2 (_ bv6 4))) (select x2 (_ bv5 4))) (select x2 (_ bv4 4))) (select x2 (_ bv3 4))) (select x2 (_ bv2 4))) (select x2 (_ bv1 4))) (select x2 (_ bv0 4)))))
(assert (= x61 (concat (concat (concat (concat (concat (concat (concat (concat (concat (concat (concat (select x3 (_ bv11 4)) (select x3 (_ bv10 4))) (select x3 (_ bv9 4))) (select x3 (_ bv8 4))) (select x3 (_ bv7 4))) (select x3 (_ bv6 4))) (select x3 (_ bv5 4))) (select x3 (_ bv4 4))) (select x3 (_ bv3 4))) (select x3 (_ bv2 4))) (select x3 (_ bv1 4))) (select x3 (_ bv0 4)))))
(assert (= x60 (x48 x32 x33 x34 x39 x47)))
(assert (= p59 (not (= x56 (_ bv0 384)))))
(assert (= x58 (bvnot x57)))
(assert (= x57 (ite (= x56 (_ bv0 384)) (_ bv1 1) (_ bv0 1))))
(assert (= x56 (bvand x55 (_ bv1 384))))
(assert (= x55 (concat (concat (concat (concat (concat (concat (concat (concat (concat (concat (concat (select x1 (_ bv11 4)) (select x1 (_ bv10 4))) (select x1 (_ bv9 4))) (select x1 (_ bv8 4))) (select x1 (_ bv7 4))) (select x1 (_ bv6 4))) (select x1 (_ bv5 4))) (select x1 (_ bv4 4))) (select x1 (_ bv3 4))) (select x1 (_ bv2 4))) (select x1 (_ bv1 4))) (select x1 (_ bv0 4)))))
(assert (= x54 (ite (= x24 (_ bv0 384)) (_ bv1 1) (_ bv0 1))))
(assert (= p53 (or p31 (= x49 x50))))
(assert (= x52 (bvor x30 x51)))
(assert (= x51 (ite (= x49 x50) (_ bv1 1) (_ bv0 1))))
(assert (= x50 (concat (concat (concat (concat (concat (concat (concat (concat (concat (concat (concat (select x4 (_ bv11 4)) (select x4 (_ bv10 4))) (select x4 (_ bv9 4))) (select x4 (_ bv8 4))) (select x4 (_ bv7 4))) (select x4 (_ bv6 4))) (select x4 (_ bv5 4))) (select x4 (_ bv4 4))) (select x4 (_ bv3 4))) (select x4 (_ bv2 4))) (select x4 (_ bv1 4))) (select x4 (_ bv0 4)))))
(assert (= x49 (x48 x32 x33 x34 x39 x47)))
(assert (= x47 (x46 x40 x45)))
(assert (= x45 (x44 x41 x42 x43)))
(assert (= x43 (concat (concat (concat (concat (concat (concat (concat (concat (concat (concat (concat (select x4 (_ bv11 4)) (select x4 (_ bv10 4))) (select x4 (_ bv9 4))) (select x4 (_ bv8 4))) (select x4 (_ bv7 4))) (select x4 (_ bv6 4))) (select x4 (_ bv5 4))) (select x4 (_ bv4 4))) (select x4 (_ bv3 4))) (select x4 (_ bv2 4))) (select x4 (_ bv1 4))) (select x4 (_ bv0 4)))))
(assert (= x42 (concat (concat (concat (concat (concat (concat (concat (concat (concat (concat (concat (select x0 (_ bv11 4)) (select x0 (_ bv10 4))) (select x0 (_ bv9 4))) (select x0 (_ bv8 4))) (select x0 (_ bv7 4))) (select x0 (_ bv6 4))) (select x0 (_ bv5 4))) (select x0 (_ bv4 4))) (select x0 (_ bv3 4))) (select x0 (_ bv2 4))) (select x0 (_ bv1 4))) (select x0 (_ bv0 4)))))
(assert (= x41 (concat (concat (concat (concat (concat (concat (concat (concat (concat (concat (concat (select x3 (_ bv11 4)) (select x3 (_ bv10 4))) (select x3 (_ bv9 4))) (select x3 (_ bv8 4))) (select x3 (_ bv7 4))) (select x3 (_ bv6 4))) (select x3 (_ bv5 4))) (select x3 (_ bv4 4))) (select x3 (_ bv3 4))) (select x3 (_ bv2 4))) (select x3 (_ bv1 4))) (select x3 (_ bv0 4)))))
(assert (= x40 (concat (concat (concat (concat (concat (concat (concat (concat (concat (concat (concat (select x3 (_ bv11 4)) (select x3 (_ bv10 4))) (select x3 (_ bv9 4))) (select x3 (_ bv8 4))) (select x3 (_ bv7 4))) (select x3 (_ bv6 4))) (select x3 (_ bv5 4))) (select x3 (_ bv4 4))) (select x3 (_ bv3 4))) (select x3 (_ bv2 4))) (select x3 (_ bv1 4))) (select x3 (_ bv0 4)))))
(assert (= x39 (bvor (_ bv0 384) x38)))
(assert (= x38 (bvlshr x37 ((_ zero_extend 379) (_ bv1 5)))))
(assert (= x37 (bvsub x35 x36)))
(assert (= x36 (concat (concat (concat (concat (concat (concat (concat (concat (concat (concat (concat (select x2 (_ bv11 4)) (select x2 (_ bv10 4))) (select x2 (_ bv9 4))) (select x2 (_ bv8 4))) (select x2 (_ bv7 4))) (select x2 (_ bv6 4))) (select x2 (_ bv5 4))) (select x2 (_ bv4 4))) (select x2 (_ bv3 4))) (select x2 (_ bv2 4))) (select x2 (_ bv1 4))) (select x2 (_ bv0 4)))))
(assert (= x35 (concat (concat (concat (concat (concat (concat (concat (concat (concat (concat (concat (select x1 (_ bv11 4)) (select x1 (_ bv10 4))) (select x1 (_ bv9 4))) (select x1 (_ bv8 4))) (select x1 (_ bv7 4))) (select x1 (_ bv6 4))) (select x1 (_ bv5 4))) (select x1 (_ bv4 4))) (select x1 (_ bv3 4))) (select x1 (_ bv2 4))) (select x1 (_ bv1 4))) (select x1 (_ bv0 4)))))
(assert (= x34 (concat (concat (concat (concat (concat (concat (concat (concat (concat (concat (concat (select x4 (_ bv11 4)) (select x4 (_ bv10 4))) (select x4 (_ bv9 4))) (select x4 (_ bv8 4))) (select x4 (_ bv7 4))) (select x4 (_ bv6 4))) (select x4 (_ bv5 4))) (select x4 (_ bv4 4))) (select x4 (_ bv3 4))) (select x4 (_ bv2 4))) (select x4 (_ bv1 4))) (select x4 (_ bv0 4)))))
(assert (= x33 (concat (concat (concat (concat (concat (concat (concat (concat (concat (concat (concat (select x2 (_ bv11 4)) (select x2 (_ bv10 4))) (select x2 (_ bv9 4))) (select x2 (_ bv8 4))) (select x2 (_ bv7 4))) (select x2 (_ bv6 4))) (select x2 (_ bv5 4))) (select x2 (_ bv4 4))) (select x2 (_ bv3 4))) (select x2 (_ bv2 4))) (select x2 (_ bv1 4))) (select x2 (_ bv0 4)))))
(assert (= x32 (concat (concat (concat (concat (concat (concat (concat (concat (concat (concat (concat (select x3 (_ bv11 4)) (select x3 (_ bv10 4))) (select x3 (_ bv9 4))) (select x3 (_ bv8 4))) (select x3 (_ bv7 4))) (select x3 (_ bv6 4))) (select x3 (_ bv5 4))) (select x3 (_ bv4 4))) (select x3 (_ bv3 4))) (select x3 (_ bv2 4))) (select x3 (_ bv1 4))) (select x3 (_ bv0 4)))))
(assert (= p31 (not (= x24 (_ bv0 384)))))
(assert (= x30 (bvnot x25)))
(assert (= p29 (and p23 p27)))
(assert (= x28 (bvand x22 x26)))
(assert (= p27 (not (= x24 (_ bv0 384)))))
(assert (= x26 (bvnot x25)))
(assert (= x25 (ite (= x24 (_ bv0 384)) (_ bv1 1) (_ bv0 1))))
(assert (= x24 (concat (concat (concat (concat (concat (concat (concat (concat (concat (concat (concat (select x1 (_ bv11 4)) (select x1 (_ bv10 4))) (select x1 (_ bv9 4))) (select x1 (_ bv8 4))) (select x1 (_ bv7 4))) (select x1 (_ bv6 4))) (select x1 (_ bv5 4))) (select x1 (_ bv4 4))) (select x1 (_ bv3 4))) (select x1 (_ bv2 4))) (select x1 (_ bv1 4))) (select x1 (_ bv0 4)))))
(assert (= p23 (and (bvule x14 x15) p21)))
(assert (= x22 (bvand x16 x20)))
(assert (= p21 (not (= x18 (_ bv0 32)))))
(assert (= x20 (bvnot x19)))
(assert (= x19 (ite (= x18 (_ bv0 32)) (_ bv1 1) (_ bv0 1))))
(assert (= x18 (bvand x17 (_ bv1 32))))
(assert (= x17 (select x1 ((_ extract 3 0) (_ bv0 32)))))
(assert (= x16 (ite (bvule x14 x15) (_ bv1 1) (_ bv0 1))))
(assert (= x15 (concat (concat (concat (concat (concat (concat (concat (concat (concat (concat (concat (select x1 (_ bv11 4)) (select x1 (_ bv10 4))) (select x1 (_ bv9 4))) (select x1 (_ bv8 4))) (select x1 (_ bv7 4))) (select x1 (_ bv6 4))) (select x1 (_ bv5 4))) (select x1 (_ bv4 4))) (select x1 (_ bv3 4))) (select x1 (_ bv2 4))) (select x1 (_ bv1 4))) (select x1 (_ bv0 4)))))
(assert (= x14 (concat (concat (concat (concat (concat (concat (concat (concat (concat (concat (concat (select x2 (_ bv11 4)) (select x2 (_ bv10 4))) (select x2 (_ bv9 4))) (select x2 (_ bv8 4))) (select x2 (_ bv7 4))) (select x2 (_ bv6 4))) (select x2 (_ bv5 4))) (select x2 (_ bv4 4))) (select x2 (_ bv3 4))) (select x2 (_ bv2 4))) (select x2 (_ bv1 4))) (select x2 (_ bv0 4)))))
(assert true)
(assert (= (select x13 (_ bv15 4)) (_ bv0 32)))
(assert (= (select x13 (_ bv14 4)) (_ bv0 32)))
(assert (= (select x13 (_ bv13 4)) (_ bv0 32)))
(assert (= (select x13 (_ bv12 4)) (_ bv0 32)))
(assert (= (select x12 (_ bv15 4)) (_ bv0 32)))
(assert (= (select x12 (_ bv14 4)) (_ bv0 32)))
(assert (= (select x12 (_ bv13 4)) (_ bv0 32)))
(assert (= (select x12 (_ bv12 4)) (_ bv0 32)))
(assert (= (select x11 (_ bv15 4)) (_ bv0 32)))
(assert (= (select x11 (_ bv14 4)) (_ bv0 32)))
(assert (= (select x11 (_ bv13 4)) (_ bv0 32)))
(assert (= (select x11 (_ bv12 4)) (_ bv0 32)))
(assert (= (select x10 (_ bv15 4)) (_ bv0 32)))
(assert (= (select x10 (_ bv14 4)) (_ bv0 32)))
(assert (= (select x10 (_ bv13 4)) (_ bv0 32)))
(assert (= (select x10 (_ bv12 4)) (_ bv0 32)))
(assert (= (select x9 (_ bv15 4)) (_ bv0 32)))
(assert (= (select x9 (_ bv14 4)) (_ bv0 32)))
(assert (= (select x9 (_ bv13 4)) (_ bv0 32)))
(assert (= (select x9 (_ bv12 4)) (_ bv0 32)))
(assert (= (select x8 (_ bv15 4)) (_ bv0 32)))
(assert (= (select x8 (_ bv14 4)) (_ bv0 32)))
(assert (= (select x8 (_ bv13 4)) (_ bv0 32)))
(assert (= (select x8 (_ bv12 4)) (_ bv0 32)))
(assert (= (select x7 (_ bv15 4)) (_ bv0 32)))
(assert (= (select x7 (_ bv14 4)) (_ bv0 32)))
(assert (= (select x7 (_ bv13 4)) (_ bv0 32)))
(assert (= (select x7 (_ bv12 4)) (_ bv0 32)))
(assert (= (select x6 (_ bv15 4)) (_ bv0 32)))
(assert (= (select x6 (_ bv14 4)) (_ bv0 32)))
(assert (= (select x6 (_ bv13 4)) (_ bv0 32)))
(assert (= (select x6 (_ bv12 4)) (_ bv0 32)))
(assert (= (select x5 (_ bv15 4)) (_ bv0 32)))
(assert (= (select x5 (_ bv14 4)) (_ bv0 32)))
(assert (= (select x5 (_ bv13 4)) (_ bv0 32)))
(assert (= (select x5 (_ bv12 4)) (_ bv0 32)))
(assert (= (select x4 (_ bv15 4)) (_ bv0 32)))
(assert (= (select x4 (_ bv14 4)) (_ bv0 32)))
(assert (= (select x4 (_ bv13 4)) (_ bv0 32)))
(assert (= (select x4 (_ bv12 4)) (_ bv0 32)))
(assert (= (select x3 (_ bv15 4)) (_ bv0 32)))
(assert (= (select x3 (_ bv14 4)) (_ bv0 32)))
(assert (= (select x3 (_ bv13 4)) (_ bv0 32)))
(assert (= (select x3 (_ bv12 4)) (_ bv0 32)))
(assert (= (select x2 (_ bv15 4)) (_ bv0 32)))
(assert (= (select x2 (_ bv14 4)) (_ bv0 32)))
(assert (= (select x2 (_ bv13 4)) (_ bv0 32)))
(assert (= (select x2 (_ bv12 4)) (_ bv0 32)))
(assert (= (select x1 (_ bv15 4)) (_ bv0 32)))
(assert (= (select x1 (_ bv14 4)) (_ bv0 32)))
(assert (= (select x1 (_ bv13 4)) (_ bv0 32)))
(assert (= (select x1 (_ bv12 4)) (_ bv0 32)))
(assert (= (select x0 (_ bv15 4)) (_ bv0 32)))
(assert (= (select x0 (_ bv14 4)) (_ bv0 32)))
(assert (= (select x0 (_ bv13 4)) (_ bv0 32)))
(assert (= (select x0 (_ bv12 4)) (_ bv0 32)))
(assert (not (=> p29 p116)))
(check-sat)
(exit)
